c colouring generated by benchmark framework
p edge 1000 449449
v 1 175
v 2 276
v 3 27
v 4 102
v 5 46
v 6 29
v 7 298
v 8 138
v 9 189
v 10 123
v 11 214
v 12 45
v 13 34
v 14 181
v 15 158
v 16 125
v 17 158
v 18 242
v 19 148
v 20 174
v 21 236
v 22 92
v 23 77
v 24 64
v 25 43
v 26 111
v 27 150
v 28 33
v 29 135
v 30 21
v 31 11
v 32 73
v 33 232
v 34 295
v 35 146
v 36 48
v 37 23
v 38 105
v 39 124
v 40 209
v 41 244
v 42 311
v 43 83
v 44 169
v 45 305
v 46 176
v 47 200
v 48 288
v 49 108
v 50 81
v 51 78
v 52 37
v 53 17
v 54 199
v 55 192
v 56 138
v 57 223
v 58 195
v 59 96
v 60 146
v 61 117
v 62 63
v 63 29
v 64 19
v 65 207
v 66 72
v 67 49
v 68 178
v 69 319
v 70 51
v 71 202
v 72 119
v 73 199
v 74 123
v 75 225
v 76 270
v 77 131
v 78 62
v 79 3
v 80 142
v 81 174
v 82 101
v 83 221
v 84 97
v 85 52
v 86 66
v 87 249
v 88 247
v 89 236
v 90 65
v 91 228
v 92 270
v 93 172
v 94 276
v 95 96
v 96 89
v 97 78
v 98 167
v 99 41
v 100 260
v 101 41
v 102 143
v 103 17
v 104 147
v 105 61
v 106 261
v 107 166
v 108 234
v 109 183
v 110 16
v 111 152
v 112 134
v 113 125
v 114 298
v 115 86
v 116 129
v 117 103
v 118 239
v 119 100
v 120 32
v 121 229
v 122 154
v 123 251
v 124 84
v 125 80
v 126 211
v 127 129
v 128 68
v 129 263
v 130 69
v 131 168
v 132 254
v 133 0
v 134 12
v 135 140
v 136 180
v 137 0
v 138 6
v 139 309
v 140 247
v 141 168
v 142 67
v 143 59
v 144 310
v 145 161
v 146 165
v 147 308
v 148 162
v 149 111
v 150 284
v 151 91
v 152 229
v 153 23
v 154 147
v 155 183
v 156 19
v 157 89
v 158 30
v 159 70
v 160 42
v 161 104
v 162 85
v 163 71
v 164 262
v 165 31
v 166 155
v 167 79
v 168 155
v 169 252
v 170 31
v 171 112
v 172 270
v 173 282
v 174 218
v 175 268
v 176 114
v 177 30
v 178 203
v 179 140
v 180 75
v 181 296
v 182 220
v 183 120
v 184 160
v 185 247
v 186 203
v 187 153
v 188 86
v 189 96
v 190 20
v 191 50
v 192 5
v 193 250
v 194 80
v 195 198
v 196 79
v 197 110
v 198 215
v 199 45
v 200 10
v 201 292
v 202 169
v 203 231
v 204 92
v 205 166
v 206 139
v 207 237
v 208 186
v 209 227
v 210 118
v 211 271
v 212 308
v 213 259
v 214 294
v 215 103
v 216 212
v 217 91
v 218 171
v 219 234
v 220 137
v 221 56
v 222 205
v 223 56
v 224 139
v 225 234
v 226 119
v 227 289
v 228 168
v 229 44
v 230 303
v 231 173
v 232 81
v 233 159
v 234 184
v 235 230
v 236 295
v 237 8
v 238 47
v 239 115
v 240 70
v 241 204
v 242 115
v 243 188
v 244 246
v 245 263
v 246 40
v 247 149
v 248 104
v 249 22
v 250 85
v 251 98
v 252 164
v 253 141
v 254 240
v 255 291
v 256 200
v 257 34
v 258 275
v 259 313
v 260 18
v 261 207
v 262 15
v 263 14
v 264 45
v 265 103
v 266 218
v 267 18
v 268 13
v 269 249
v 270 290
v 271 118
v 272 5
v 273 79
v 274 256
v 275 200
v 276 239
v 277 190
v 278 34
v 279 43
v 280 69
v 281 157
v 282 197
v 283 312
v 284 291
v 285 68
v 286 195
v 287 170
v 288 115
v 289 217
v 290 113
v 291 48
v 292 314
v 293 143
v 294 185
v 295 98
v 296 9
v 297 306
v 298 132
v 299 280
v 300 223
v 301 114
v 302 150
v 303 245
v 304 148
v 305 287
v 306 153
v 307 165
v 308 29
v 309 216
v 310 193
v 311 212
v 312 189
v 313 206
v 314 293
v 315 237
v 316 8
v 317 42
v 318 55
v 319 110
v 320 209
v 321 66
v 322 283
v 323 107
v 324 316
v 325 305
v 326 235
v 327 277
v 328 10
v 329 281
v 330 167
v 331 183
v 332 63
v 333 39
v 334 203
v 335 56
v 336 318
v 337 252
v 338 120
v 339 40
v 340 26
v 341 55
v 342 61
v 343 54
v 344 1
v 345 300
v 346 151
v 347 274
v 348 30
v 349 293
v 350 89
v 351 208
v 352 192
v 353 297
v 354 153
v 355 248
v 356 0
v 357 14
v 358 70
v 359 245
v 360 117
v 361 262
v 362 122
v 363 268
v 364 297
v 365 156
v 366 212
v 367 208
v 368 317
v 369 74
v 370 185
v 371 302
v 372 232
v 373 288
v 374 189
v 375 178
v 376 179
v 377 181
v 378 74
v 379 65
v 380 214
v 381 22
v 382 185
v 383 88
v 384 113
v 385 8
v 386 254
v 387 235
v 388 27
v 389 127
v 390 286
v 391 233
v 392 226
v 393 174
v 394 266
v 395 140
v 396 150
v 397 54
v 398 219
v 399 94
v 400 98
v 401 175
v 402 299
v 403 106
v 404 311
v 405 233
v 406 53
v 407 16
v 408 275
v 409 89
v 410 216
v 411 213
v 412 110
v 413 7
v 414 149
v 415 165
v 416 267
v 417 53
v 418 32
v 419 217
v 420 25
v 421 317
v 422 263
v 423 254
v 424 67
v 425 298
v 426 105
v 427 149
v 428 167
v 429 242
v 430 289
v 431 2
v 432 151
v 433 178
v 434 19
v 435 109
v 436 134
v 437 152
v 438 261
v 439 245
v 440 99
v 441 151
v 442 99
v 443 63
v 444 87
v 445 143
v 446 78
v 447 271
v 448 160
v 449 300
v 450 182
v 451 166
v 452 154
v 453 271
v 454 133
v 455 260
v 456 35
v 457 37
v 458 219
v 459 184
v 460 138
v 461 39
v 462 12
v 463 53
v 464 183
v 465 124
v 466 82
v 467 51
v 468 97
v 469 55
v 470 19
v 471 201
v 472 200
v 473 44
v 474 192
v 475 81
v 476 261
v 477 273
v 478 195
v 479 10
v 480 36
v 481 191
v 482 226
v 483 272
v 484 41
v 485 285
v 486 230
v 487 49
v 488 15
v 489 5
v 490 13
v 491 77
v 492 72
v 493 281
v 494 305
v 495 172
v 496 118
v 497 161
v 498 111
v 499 221
v 500 241
v 501 136
v 502 189
v 503 22
v 504 278
v 505 130
v 506 44
v 507 179
v 508 11
v 509 1
v 510 129
v 511 193
v 512 17
v 513 117
v 514 296
v 515 206
v 516 3
v 517 269
v 518 273
v 519 36
v 520 233
v 521 304
v 522 52
v 523 27
v 524 209
v 525 315
v 526 241
v 527 87
v 528 227
v 529 172
v 530 262
v 531 7
v 532 307
v 533 272
v 534 214
v 535 171
v 536 314
v 537 267
v 538 193
v 539 37
v 540 286
v 541 76
v 542 101
v 543 65
v 544 47
v 545 21
v 546 264
v 547 119
v 548 312
v 549 20
v 550 142
v 551 211
v 552 116
v 553 215
v 554 142
v 555 274
v 556 88
v 557 249
v 558 35
v 559 136
v 560 236
v 561 211
v 562 211
v 563 257
v 564 109
v 565 220
v 566 186
v 567 244
v 568 194
v 569 155
v 570 247
v 571 259
v 572 73
v 573 62
v 574 268
v 575 24
v 576 144
v 577 279
v 578 314
v 579 100
v 580 316
v 581 3
v 582 116
v 583 122
v 584 286
v 585 199
v 586 32
v 587 187
v 588 135
v 589 173
v 590 130
v 591 264
v 592 230
v 593 264
v 594 57
v 595 4
v 596 210
v 597 36
v 598 186
v 599 104
v 600 120
v 601 123
v 602 289
v 603 72
v 604 12
v 605 310
v 606 159
v 607 303
v 608 26
v 609 35
v 610 30
v 611 156
v 612 196
v 613 177
v 614 263
v 615 212
v 616 243
v 617 1
v 618 23
v 619 163
v 620 138
v 621 14
v 622 172
v 623 76
v 624 121
v 625 38
v 626 9
v 627 99
v 628 218
v 629 74
v 630 113
v 631 39
v 632 300
v 633 141
v 634 18
v 635 213
v 636 97
v 637 307
v 638 114
v 639 205
v 640 66
v 641 109
v 642 2
v 643 235
v 644 28
v 645 295
v 646 177
v 647 175
v 648 301
v 649 192
v 650 190
v 651 158
v 652 59
v 653 83
v 654 269
v 655 299
v 656 93
v 657 84
v 658 103
v 659 144
v 660 278
v 661 147
v 662 94
v 663 101
v 664 176
v 665 58
v 666 186
v 667 143
v 668 133
v 669 108
v 670 196
v 671 253
v 672 251
v 673 291
v 674 122
v 675 59
v 676 15
v 677 20
v 678 302
v 679 156
v 680 60
v 681 108
v 682 246
v 683 191
v 684 26
v 685 222
v 686 191
v 687 25
v 688 15
v 689 257
v 690 215
v 691 90
v 692 57
v 693 90
v 694 58
v 695 137
v 696 108
v 697 319
v 698 204
v 699 133
v 700 142
v 701 80
v 702 293
v 703 102
v 704 277
v 705 60
v 706 40
v 707 206
v 708 54
v 709 216
v 710 170
v 711 150
v 712 15
v 713 141
v 714 71
v 715 104
v 716 16
v 717 31
v 718 153
v 719 182
v 720 126
v 721 273
v 722 277
v 723 127
v 724 37
v 725 0
v 726 91
v 727 69
v 728 239
v 729 280
v 730 240
v 731 255
v 732 210
v 733 132
v 734 306
v 735 279
v 736 145
v 737 102
v 738 94
v 739 64
v 740 227
v 741 2
v 742 175
v 743 144
v 744 167
v 745 4
v 746 318
v 747 243
v 748 124
v 749 28
v 750 163
v 751 287
v 752 319
v 753 75
v 754 90
v 755 2
v 756 181
v 757 46
v 758 61
v 759 160
v 760 140
v 761 284
v 762 127
v 763 72
v 764 196
v 765 134
v 766 274
v 767 238
v 768 49
v 769 279
v 770 51
v 771 297
v 772 12
v 773 304
v 774 68
v 775 95
v 776 148
v 777 17
v 778 256
v 779 244
v 780 47
v 781 257
v 782 73
v 783 132
v 784 131
v 785 201
v 786 166
v 787 202
v 788 59
v 789 304
v 790 106
v 791 269
v 792 10
v 793 93
v 794 131
v 795 255
v 796 46
v 797 134
v 798 194
v 799 169
v 800 180
v 801 25
v 802 31
v 803 7
v 804 248
v 805 205
v 806 5
v 807 202
v 808 315
v 809 223
v 810 60
v 811 33
v 812 2
v 813 136
v 814 248
v 815 64
v 816 187
v 817 285
v 818 52
v 819 250
v 820 217
v 821 43
v 822 265
v 823 28
v 824 276
v 825 201
v 826 87
v 827 96
v 828 184
v 829 13
v 830 82
v 831 194
v 832 42
v 833 208
v 834 246
v 835 93
v 836 283
v 837 13
v 838 243
v 839 128
v 840 146
v 841 144
v 842 204
v 843 6
v 844 158
v 845 224
v 846 57
v 847 24
v 848 157
v 849 296
v 850 21
v 851 245
v 852 24
v 853 125
v 854 308
v 855 121
v 856 161
v 857 130
v 858 159
v 859 112
v 860 154
v 861 86
v 862 139
v 863 85
v 864 71
v 865 45
v 866 179
v 867 164
v 868 128
v 869 265
v 870 75
v 871 61
v 872 226
v 873 106
v 874 266
v 875 302
v 876 38
v 877 241
v 878 116
v 879 290
v 880 220
v 881 256
v 882 169
v 883 162
v 884 238
v 885 228
v 886 88
v 887 301
v 888 237
v 889 229
v 890 22
v 891 164
v 892 176
v 893 225
v 894 250
v 895 39
v 896 240
v 897 9
v 898 145
v 899 163
v 900 190
v 901 84
v 902 107
v 903 83
v 904 162
v 905 232
v 906 126
v 907 282
v 908 317
v 909 188
v 910 171
v 911 283
v 912 307
v 913 154
v 914 76
v 915 133
v 916 309
v 917 177
v 918 213
v 919 106
v 920 93
v 921 95
v 922 219
v 923 27
v 924 222
v 925 100
v 926 17
v 927 111
v 928 82
v 929 50
v 930 6
v 931 65
v 932 251
v 933 145
v 934 36
v 935 197
v 936 50
v 937 107
v 938 292
v 939 124
v 940 178
v 941 70
v 942 258
v 943 48
v 944 28
v 945 109
v 946 119
v 947 197
v 948 253
v 949 62
v 950 68
v 951 67
v 952 54
v 953 34
v 954 294
v 955 224
v 956 290
v 957 162
v 958 92
v 959 238
v 960 258
v 961 278
v 962 121
v 963 107
v 964 112
v 965 182
v 966 95
v 967 33
v 968 260
v 969 11
v 970 198
v 971 203
v 972 58
v 973 135
v 974 225
v 975 152
v 976 86
v 977 266
v 978 194
v 979 35
v 980 173
v 981 313
v 982 126
v 983 228
v 984 231
v 985 137
v 986 252
v 987 157
v 988 4
v 989 255
v 990 128
v 991 224
v 992 105
v 993 210
v 994 38
v 995 231
v 996 222
v 997 98
v 998 229
v 999 77
v 1000 29
